
Gurobi 11.0.3 (linux64) logging started Mon Aug 25 15:07:11 2025

Set parameter LogFile to value "/home/yihong/Coding/OR_SUC/SUC_epstheta_results_bigM100000_thread4/case24_ieee_rts_theta0.1_epsilon0.1_gurobi_seed80000_num_gen100_N_WDR50_load_scaling_factor1_proposed_eps_T12quadra_cost_bc1.03.txt"
Set parameter TimeLimit to value 3600
Gurobi Optimizer version 11.0.3 build v11.0.3rc0 (linux64 - "Ubuntu 20.04.6 LTS")

CPU model: AMD EPYC 7532 32-Core Processor, instruction set [SSE2|AVX|AVX2]
Thread count: 64 physical cores, 128 logical processors, using up to 4 threads

Academic license 2399124 - for non-commercial use only - registered to yi___@ed.ac.uk
Optimize a model with 28480 rows, 14931 columns and 656950 nonzeros
Model fingerprint: 0x32962efa
Model has 1200 quadratic constraints
Variable types: 13731 continuous, 1200 integer (1200 binary)
Coefficient statistics:
  Matrix range     [3e-04, 2e+03]
  QMatrix range    [2e-03, 8e-03]
  QLMatrix range   [6e-02, 6e+01]
  Objective range  [1e+00, 1e+00]
  Bounds range     [1e+00, 1e+00]
  RHS range        [1e+00, 9e+03]
Presolve removed 23178 rows and 6340 columns
Presolve time: 0.26s
Presolved: 5302 rows, 8591 columns, 29469 nonzeros
Presolved model has 1200 quadratic constraint(s)
Variable types: 7391 continuous, 1200 integer (1200 binary)

Root relaxation: objective 1.642810e+04, 4326 iterations, 0.12 seconds (0.12 work units)

    Nodes    |    Current Node    |     Objective Bounds      |     Work
 Expl Unexpl |  Obj  Depth IntInf | Incumbent    BestBd   Gap | It/Node Time

H    0     0                    376230.57996 16428.1030  95.6%     -    0s
*    0     0               0    376230.57996 16428.1030  95.6%     -    0s
     0     0 206188.292    0  327 376230.580 206188.292  45.2%     -    0s
     0     0 348830.285    0   98 376230.580 348830.285  7.28%     -    0s
     0     0 348886.213    0   31 376230.580 348886.213  7.27%     -    1s
     0     0 348886.318    0   43 376230.580 348886.318  7.27%     -    1s
     0     0 348886.779    0   43 376230.580 348886.779  7.27%     -    1s
     0     0 348888.747    0   43 376230.580 348888.747  7.27%     -    1s
     0     0 348888.747    0   43 376230.580 348888.747  7.27%     -    1s
     0     2 348888.747    0   43 376230.580 348888.747  7.27%     -    1s
H  145   150                    348964.33982 348892.225  0.02%  22.6    3s
*  145   150              32    348964.33982 348892.225  0.02%  22.8    3s

Cutting planes:
  Gomory: 88
  Lift-and-project: 12
  Implied bound: 194
  MIR: 17
  Flow cover: 128
  RLT: 143
  Relax-and-lift: 52

Explored 174 nodes (14471 simplex iterations) in 4.10 seconds (3.43 work units)
Thread count was 4 (of 128 available processors)

Solution count 3: 348964 348964 376231 

Optimal solution found (tolerance 1.00e-03)
Warning: max constraint violation (2.7935e-07) exceeds tolerance
Best objective 3.489643398243e+05, best bound 3.488922253055e+05, gap 0.0207%

Gurobi 11.0.3 (linux64) logging started Mon Aug 25 15:07:16 2025

Set parameter LogFile to value "/home/yihong/Coding/OR_SUC/SUC_epstheta_results_bigM100000_thread4/case24_ieee_rts_theta0.1_epsilon0.1_gurobi_seed80000_num_gen100_N_WDR50_load_scaling_factor1_proposed_eps_T12quadra_cost_bc1.03.txt"
Set parameter TimeLimit to value 3600
Gurobi Optimizer version 11.0.3 build v11.0.3rc0 (linux64 - "Ubuntu 20.04.6 LTS")

CPU model: AMD EPYC 7532 32-Core Processor, instruction set [SSE2|AVX|AVX2]
Thread count: 64 physical cores, 128 logical processors, using up to 4 threads

Academic license 2399124 - for non-commercial use only - registered to yi___@ed.ac.uk
Optimize a model with 28480 rows, 14932 columns and 660619 nonzeros
Model fingerprint: 0x4e573f94
Model has 1201 quadratic constraints
Variable types: 13732 continuous, 1200 integer (1200 binary)
Coefficient statistics:
  Matrix range     [3e-04, 2e+03]
  QMatrix range    [2e-03, 5e+01]
  QLMatrix range   [6e-02, 6e+01]
  Objective range  [1e+00, 1e+00]
  Bounds range     [1e-01, 1e+00]
  RHS range        [1e+00, 4e+05]
  QRHS range       [5e+00, 5e+00]
Presolve removed 21080 rows and 5289 columns
Presolve time: 0.24s
Presolved: 8602 rows, 10843 columns, 45177 nonzeros
Presolved model has 1200 quadratic constraint(s)
Presolved model has 1 bilinear constraint(s)

Solving non-convex MIQCP

Variable types: 9641 continuous, 1202 integer (1202 binary)

Root relaxation: objective 1.482972e-03, 11833 iterations, 0.69 seconds (0.94 work units)

    Nodes    |    Current Node    |     Objective Bounds      |     Work
 Expl Unexpl |  Obj  Depth IntInf | Incumbent    BestBd   Gap | It/Node Time

     0     0    0.00148    0   10          -    0.00148      -     -    1s
     0     0    0.00149    0    9          -    0.00149      -     -    1s
     0     0    0.00203    0    9          -    0.00203      -     -    2s
     0     0    0.00203    0    9          -    0.00203      -     -    2s
     0     0    0.00203    0    9          -    0.00203      -     -    2s
     0     0    0.00203    0    9          -    0.00203      -     -    2s
H    0     0                       0.0118948    0.00203  82.9%     -    2s
     0     0    0.01161    0    9    0.01189    0.01161  2.43%     -    2s
     0     0    0.01161    0    9    0.01189    0.01161  2.42%     -    2s
     0     0    0.01161    0    9    0.01189    0.01161  2.42%     -    2s
     0     0    0.01161    0    9    0.01189    0.01161  2.42%     -    2s
     0     0    0.01161    0    9    0.01189    0.01161  2.41%     -    3s
     0     0    0.01161    0    9    0.01189    0.01161  2.41%     -    3s
     0     0    0.01161    0    9    0.01189    0.01161  2.41%     -    3s
     0     0    0.01161    0    9    0.01189    0.01161  2.37%     -    3s
     0     2    0.01161    0    9    0.01189    0.01161  2.37%     -    3s
    52    62    0.01163   14    9    0.01189    0.01163  2.21%  13.4    5s
H   74    74                       0.0116602    0.01163  0.23%  12.2    5s
*   74    74              20       0.0116602    0.01163  0.23%  12.2    5s
H   90    65                       0.0116579    0.01164  0.17%  12.3    5s
*   90    65              23       0.0116579    0.01164  0.16%  12.3    5s

Cutting planes:
  Implied bound: 12
  RLT: 2

Explored 145 nodes (14925 simplex iterations) in 5.91 seconds (6.33 work units)
Thread count was 4 (of 128 available processors)

Solution count 3: 0.0116579 0.0116602 0.0118948 

Optimal solution found (tolerance 1.00e-03)
Best objective 1.165789967294e-02, best bound 1.164850482888e-02, gap 0.0806%
